Base=4;
C=77;
start_setup=[|0,0,0,0,0,13,0,4,0,0,0,0,0,0,0,16
             |1,0,0,0,0,0,0,0,0,0,0,0,0,0,0,11
             |0,4,0,0,0,0,0,0,0,0,0,0,0,0,0,0
             |0,0,0,0,2,0,7,0,0,0,3,0,0,0,8,0
             |0,0,0,4,0,0,0,0,0,0,0,0,11,5,15,0
             |0,0,0,0,0,0,0,6,0,0,0,0,0,9,0,0
             |0,0,0,0,0,0,9,0,0,0,0,11,0,0,7,0
             |15,0,0,0,0,0,0,0,0,0,0,0,0,0,1,0
             |0,2,1,0,9,0,0,0,13,0,0,0,0,0,0,0
             |0,0,0,0,0,0,0,0,0,2,11,0,0,0,13,7
             |0,0,0,0,0,0,13,0,0,1,4,0,14,0,11,0
             |0,0,0,0,0,0,0,0,5,0,9,0,0,0,0,0
             |4,0,0,0,0,7,0,0,0,0,0,9,16,0,0,0
             |0,0,0,0,0,0,0,0,4,0,2,0,12,11,0,0
             |0,11,10,0,0,3,0,1,0,15,0,0,0,0,0,0
             |0,0,0,0,0,0,0,9,0,7,6,5,4,3,0,0
|];
target_sum=[14,46,26,30,68,77,52,28,15,11,19,24,6,22,16,57,24,14,12,28,26,52,24,29,40,38,13,6,1,31,33,16,52,19,50,15,10,30,7,40,52,52,49,17,50,67,2,56,17,53,99,97,12,4,37,9,10,6,29,6,12,9,15,20,82,18,12,35,11,8,19,12,28,14,2,29,5];
tile2cage=[
43,43,77,52,52,52,21,21,21,57,18,44,3,10,10,42
,43,45,52,52,52,52,52,2,2,57,18,44,3,3,42,42
,43,45,45,52,52,13,2,2,62,48,48,48,40,40,42,42
,43,45,45,5,75,15,2,41,41,41,48,48,40,11,11,54
,43,66,66,5,74,15,67,41,41,41,23,48,40,11,25,64
,43,66,5,5,46,46,49,58,38,38,23,23,37,25,25,64
,5,5,5,5,46,46,49,49,38,38,30,30,9,20,20,53
,76,76,19,5,46,46,46,65,68,7,30,60,9,20,20,20
,50,50,50,16,16,16,65,65,68,7,7,34,34,34,20,70
,14,50,50,16,29,16,65,65,68,7,36,33,33,33,33,22
,14,50,50,50,39,16,65,65,7,7,36,35,35,61,22,22
,14,8,8,32,55,16,69,65,7,7,71,35,35,6,22,22
,12,27,27,27,55,55,26,26,72,31,71,35,73,6,6,22
,12,27,51,51,55,63,26,26,31,31,47,24,73,6,6,56
,12,51,51,51,4,4,59,59,59,31,1,24,6,6,6,6
,51,51,51,51,4,4,59,17,17,17,24,24,24,28,28,28];
